#BEGIN: [Fri Oct 28 11:36:59 2022]
#HOST: mini11.local
#TIMELIMIT: 10800
#MEMLIMIT: 0
#FREQ: 10
#SOLVER: anSolverAsp221027
#CSP: benchmark/automata-network/star_asp/star07.lp
#K: 14
#COMMAND: /Users/soh/app/finding_attractors/incremental-finding.sh benchmark/automata-network/star_asp/star07.lp 14
benchmark/automata-network/star_asp/star07.lp 1
-e %----- The attractor computed for benchmark/automata-network/star_asp/star07.lp 
 %----- The size of the attractor = 1 

clingo version 5.4.0
Reading from ...from_paper2017/scripts/fixed-points.lp ...
Solving...
UNSATISFIABLE

Models       : 0
Calls        : 1
Time         : 0.009s (Solving: 0.00s 1st Model: 0.00s Unsat: 0.00s)
CPU Time     : 0.004s
benchmark/automata-network/star_asp/star07.lp 2
-e %----- The attractor computed for benchmark/automata-network/star_asp/star07.lp 
 %----- The size of the attractor = 2 
-e   %----- The attractor computed with Asynchronous Dynamics 

-e CMD: clingo /Users/soh/app/finding_attractors/01_original_from_paper2017/scripts/asynch.lp /Users/soh/app/finding_attractors/02_attractors-new/with-cycle/attractors-preF.lp /Users/soh/app/finding_attractors/02_attractors-new/with-cycle/attractors-postF.lp benchmark/automata-network/star_asp/star07.lp --const n=2 0

clingo version 5.4.0
Reading from ...ginal_from_paper2017/scripts/asynch.lp ...
Solving...
UNSATISFIABLE

Models       : 0
Calls        : 1
Time         : 0.044s (Solving: 0.00s 1st Model: 0.00s Unsat: 0.00s)
CPU Time     : 0.039s
[ Calling Python ]
[ Solving ready ]
*** Found: 0; skipped: 0
benchmark/automata-network/star_asp/star07.lp 3
-e %----- The attractor computed for benchmark/automata-network/star_asp/star07.lp 
 %----- The size of the attractor = 3 
-e   %----- The attractor computed with Asynchronous Dynamics 

-e CMD: clingo /Users/soh/app/finding_attractors/01_original_from_paper2017/scripts/asynch.lp /Users/soh/app/finding_attractors/02_attractors-new/with-cycle/attractors-preF.lp /Users/soh/app/finding_attractors/02_attractors-new/with-cycle/attractors-postF.lp benchmark/automata-network/star_asp/star07.lp --const n=3 0

clingo version 5.4.0
Reading from ...ginal_from_paper2017/scripts/asynch.lp ...
Solving...
UNSATISFIABLE

Models       : 0
Calls        : 1
Time         : 0.051s (Solving: 0.00s 1st Model: 0.00s Unsat: 0.00s)
CPU Time     : 0.045s
[ Calling Python ]
[ Solving ready ]
*** Found: 0; skipped: 0
benchmark/automata-network/star_asp/star07.lp 4
-e %----- The attractor computed for benchmark/automata-network/star_asp/star07.lp 
 %----- The size of the attractor = 4 
-e   %----- The attractor computed with Asynchronous Dynamics 

-e CMD: clingo /Users/soh/app/finding_attractors/01_original_from_paper2017/scripts/asynch.lp /Users/soh/app/finding_attractors/02_attractors-new/with-cycle/attractors-preF.lp /Users/soh/app/finding_attractors/02_attractors-new/with-cycle/attractors-postF.lp benchmark/automata-network/star_asp/star07.lp --const n=4 0

clingo version 5.4.0
Reading from ...ginal_from_paper2017/scripts/asynch.lp ...
Solving...
UNSATISFIABLE

Models       : 0
Calls        : 1
Time         : 0.062s (Solving: 0.00s 1st Model: 0.00s Unsat: 0.00s)
CPU Time     : 0.055s
[ Calling Python ]
[ Solving ready ]
*** Found: 0; skipped: 0
benchmark/automata-network/star_asp/star07.lp 5
-e %----- The attractor computed for benchmark/automata-network/star_asp/star07.lp 
 %----- The size of the attractor = 5 
-e   %----- The attractor computed with Asynchronous Dynamics 

-e CMD: clingo /Users/soh/app/finding_attractors/01_original_from_paper2017/scripts/asynch.lp /Users/soh/app/finding_attractors/02_attractors-new/with-cycle/attractors-preF.lp /Users/soh/app/finding_attractors/02_attractors-new/with-cycle/attractors-postF.lp benchmark/automata-network/star_asp/star07.lp --const n=5 0

clingo version 5.4.0
Reading from ...ginal_from_paper2017/scripts/asynch.lp ...
Solving...
UNSATISFIABLE

Models       : 0
Calls        : 1
Time         : 0.077s (Solving: 0.01s 1st Model: 0.00s Unsat: 0.01s)
CPU Time     : 0.072s
[ Calling Python ]
[ Solving ready ]
*** Found: 0; skipped: 0
benchmark/automata-network/star_asp/star07.lp 6
-e %----- The attractor computed for benchmark/automata-network/star_asp/star07.lp 
 %----- The size of the attractor = 6 
-e   %----- The attractor computed with Asynchronous Dynamics 

-e CMD: clingo /Users/soh/app/finding_attractors/01_original_from_paper2017/scripts/asynch.lp /Users/soh/app/finding_attractors/02_attractors-new/with-cycle/attractors-preF.lp /Users/soh/app/finding_attractors/02_attractors-new/with-cycle/attractors-postF.lp benchmark/automata-network/star_asp/star07.lp --const n=6 0

clingo version 5.4.0
Reading from ...ginal_from_paper2017/scripts/asynch.lp ...
Solving...
UNSATISFIABLE

Models       : 0
Calls        : 1
Time         : 0.109s (Solving: 0.01s 1st Model: 0.00s Unsat: 0.01s)
CPU Time     : 0.104s
[ Calling Python ]
[ Solving ready ]
*** Found: 0; skipped: 0
benchmark/automata-network/star_asp/star07.lp 7
-e %----- The attractor computed for benchmark/automata-network/star_asp/star07.lp 
 %----- The size of the attractor = 7 
-e   %----- The attractor computed with Asynchronous Dynamics 

-e CMD: clingo /Users/soh/app/finding_attractors/01_original_from_paper2017/scripts/asynch.lp /Users/soh/app/finding_attractors/02_attractors-new/with-cycle/attractors-preF.lp /Users/soh/app/finding_attractors/02_attractors-new/with-cycle/attractors-postF.lp benchmark/automata-network/star_asp/star07.lp --const n=7 0

clingo version 5.4.0
Reading from ...ginal_from_paper2017/scripts/asynch.lp ...
Solving...
UNSATISFIABLE

Models       : 0
Calls        : 1
Time         : 0.164s (Solving: 0.02s 1st Model: 0.00s Unsat: 0.02s)
CPU Time     : 0.159s
[ Calling Python ]
[ Solving ready ]
*** Found: 0; skipped: 0
benchmark/automata-network/star_asp/star07.lp 8
-e %----- The attractor computed for benchmark/automata-network/star_asp/star07.lp 
 %----- The size of the attractor = 8 
-e   %----- The attractor computed with Asynchronous Dynamics 

-e CMD: clingo /Users/soh/app/finding_attractors/01_original_from_paper2017/scripts/asynch.lp /Users/soh/app/finding_attractors/02_attractors-new/with-cycle/attractors-preF.lp /Users/soh/app/finding_attractors/02_attractors-new/with-cycle/attractors-postF.lp benchmark/automata-network/star_asp/star07.lp --const n=8 0

clingo version 5.4.0
Reading from ...ginal_from_paper2017/scripts/asynch.lp ...
Solving...
UNSATISFIABLE

Models       : 0
Calls        : 1
Time         : 0.300s (Solving: 0.08s 1st Model: 0.00s Unsat: 0.08s)
CPU Time     : 0.294s
[ Calling Python ]
[ Solving ready ]
*** Found: 0; skipped: 0
benchmark/automata-network/star_asp/star07.lp 9
-e %----- The attractor computed for benchmark/automata-network/star_asp/star07.lp 
 %----- The size of the attractor = 9 
-e   %----- The attractor computed with Asynchronous Dynamics 

-e CMD: clingo /Users/soh/app/finding_attractors/01_original_from_paper2017/scripts/asynch.lp /Users/soh/app/finding_attractors/02_attractors-new/with-cycle/attractors-preF.lp /Users/soh/app/finding_attractors/02_attractors-new/with-cycle/attractors-postF.lp benchmark/automata-network/star_asp/star07.lp --const n=9 0

clingo version 5.4.0
Reading from ...ginal_from_paper2017/scripts/asynch.lp ...
Solving...
UNSATISFIABLE

Models       : 0
Calls        : 1
Time         : 0.503s (Solving: 0.18s 1st Model: 0.00s Unsat: 0.18s)
CPU Time     : 0.497s
[ Calling Python ]
[ Solving ready ]
*** Found: 0; skipped: 0
benchmark/automata-network/star_asp/star07.lp 10
-e %----- The attractor computed for benchmark/automata-network/star_asp/star07.lp 
 %----- The size of the attractor = 10 
-e   %----- The attractor computed with Asynchronous Dynamics 

-e CMD: clingo /Users/soh/app/finding_attractors/01_original_from_paper2017/scripts/asynch.lp /Users/soh/app/finding_attractors/02_attractors-new/with-cycle/attractors-preF.lp /Users/soh/app/finding_attractors/02_attractors-new/with-cycle/attractors-postF.lp benchmark/automata-network/star_asp/star07.lp --const n=10 0

clingo version 5.4.0
Reading from ...ginal_from_paper2017/scripts/asynch.lp ...
Solving...
UNSATISFIABLE

Models       : 0
Calls        : 1
Time         : 0.874s (Solving: 0.33s 1st Model: 0.00s Unsat: 0.33s)
CPU Time     : 0.863s
[ Calling Python ]
[ Solving ready ]
*** Found: 0; skipped: 0
benchmark/automata-network/star_asp/star07.lp 11
-e %----- The attractor computed for benchmark/automata-network/star_asp/star07.lp 
 %----- The size of the attractor = 11 
-e   %----- The attractor computed with Asynchronous Dynamics 

-e CMD: clingo /Users/soh/app/finding_attractors/01_original_from_paper2017/scripts/asynch.lp /Users/soh/app/finding_attractors/02_attractors-new/with-cycle/attractors-preF.lp /Users/soh/app/finding_attractors/02_attractors-new/with-cycle/attractors-postF.lp benchmark/automata-network/star_asp/star07.lp --const n=11 0

clingo version 5.4.0
Reading from ...ginal_from_paper2017/scripts/asynch.lp ...
Solving...
UNSATISFIABLE

Models       : 0
Calls        : 1
Time         : 1.445s (Solving: 0.74s 1st Model: 0.00s Unsat: 0.74s)
CPU Time     : 1.439s
[ Calling Python ]
[ Solving ready ]
*** Found: 0; skipped: 0
benchmark/automata-network/star_asp/star07.lp 12
-e %----- The attractor computed for benchmark/automata-network/star_asp/star07.lp 
 %----- The size of the attractor = 12 
-e   %----- The attractor computed with Asynchronous Dynamics 

-e CMD: clingo /Users/soh/app/finding_attractors/01_original_from_paper2017/scripts/asynch.lp /Users/soh/app/finding_attractors/02_attractors-new/with-cycle/attractors-preF.lp /Users/soh/app/finding_attractors/02_attractors-new/with-cycle/attractors-postF.lp benchmark/automata-network/star_asp/star07.lp --const n=12 0

clingo version 5.4.0
Reading from ...ginal_from_paper2017/scripts/asynch.lp ...
Solving...
UNSATISFIABLE

Models       : 0
Calls        : 1
Time         : 2.350s (Solving: 1.37s 1st Model: 0.00s Unsat: 1.37s)
CPU Time     : 2.343s
[ Calling Python ]
[ Solving ready ]
*** Found: 0; skipped: 0
benchmark/automata-network/star_asp/star07.lp 13
-e %----- The attractor computed for benchmark/automata-network/star_asp/star07.lp 
 %----- The size of the attractor = 13 
-e   %----- The attractor computed with Asynchronous Dynamics 

-e CMD: clingo /Users/soh/app/finding_attractors/01_original_from_paper2017/scripts/asynch.lp /Users/soh/app/finding_attractors/02_attractors-new/with-cycle/attractors-preF.lp /Users/soh/app/finding_attractors/02_attractors-new/with-cycle/attractors-postF.lp benchmark/automata-network/star_asp/star07.lp --const n=13 0

clingo version 5.4.0
Reading from ...ginal_from_paper2017/scripts/asynch.lp ...
Solving...
UNSATISFIABLE

Models       : 0
Calls        : 1
Time         : 2.388s (Solving: 1.05s 1st Model: 0.00s Unsat: 1.05s)
CPU Time     : 2.381s
[ Calling Python ]
[ Solving ready ]
*** Found: 0; skipped: 0
benchmark/automata-network/star_asp/star07.lp 14
-e %----- The attractor computed for benchmark/automata-network/star_asp/star07.lp 
 %----- The size of the attractor = 14 
-e   %----- The attractor computed with Asynchronous Dynamics 

-e CMD: clingo /Users/soh/app/finding_attractors/01_original_from_paper2017/scripts/asynch.lp /Users/soh/app/finding_attractors/02_attractors-new/with-cycle/attractors-preF.lp /Users/soh/app/finding_attractors/02_attractors-new/with-cycle/attractors-postF.lp benchmark/automata-network/star_asp/star07.lp --const n=14 0

clingo version 5.4.0
Reading from ...ginal_from_paper2017/scripts/asynch.lp ...
Solving...
Answer: 1
active(level("A1",1),12) active(level("A2",1),10) active(level("A3",1),6) active(level("A4",1),14) active(level("A5",1),8) active(level("A6",1),4) active(level("A7",1),2) active(level("A1",0),1) active(level("A1",0),2) active(level("A1",0),3) active(level("A1",0),4) active(level("A1",0),5) active(level("A1",0),6) active(level("A1",0),7) active(level("A1",0),8) active(level("A1",0),9) active(level("A1",0),10) active(level("A1",0),11) active(level("A1",0),13) active(level("A1",0),14) active(level("A2",0),1) active(level("A2",0),2) active(level("A2",0),3) active(level("A2",0),4) active(level("A2",0),5) active(level("A2",0),6) active(level("A2",0),7) active(level("A2",0),8) active(level("A2",0),9) active(level("A2",0),11) active(level("A2",0),12) active(level("A2",0),13) active(level("A2",0),14) active(level("A3",0),1) active(level("A3",0),2) active(level("A3",0),3) active(level("A3",0),4) active(level("A3",0),5) active(level("A3",0),7) active(level("A3",0),8) active(level("A3",0),9) active(level("A3",0),10) active(level("A3",0),11) active(level("A3",0),12) active(level("A3",0),13) active(level("A3",0),14) active(level("A4",0),1) active(level("A4",0),2) active(level("A4",0),3) active(level("A4",0),4) active(level("A4",0),5) active(level("A4",0),6) active(level("A4",0),7) active(level("A4",0),8) active(level("A4",0),9) active(level("A4",0),10) active(level("A4",0),11) active(level("A4",0),12) active(level("A4",0),13) active(level("A5",0),1) active(level("A5",0),2) active(level("A5",0),3) active(level("A5",0),4) active(level("A5",0),5) active(level("A5",0),6) active(level("A5",0),7) active(level("A5",0),9) active(level("A5",0),10) active(level("A5",0),11) active(level("A5",0),12) active(level("A5",0),13) active(level("A5",0),14) active(level("A6",0),1) active(level("A6",0),2) active(level("A6",0),3) active(level("A6",0),5) active(level("A6",0),6) active(level("A6",0),7) active(level("A6",0),8) active(level("A6",0),9) active(level("A6",0),10) active(level("A6",0),11) active(level("A6",0),12) active(level("A6",0),13) active(level("A6",0),14) active(level("A7",0),1) active(level("A7",0),3) active(level("A7",0),4) active(level("A7",0),5) active(level("A7",0),6) active(level("A7",0),7) active(level("A7",0),8) active(level("A7",0),9) active(level("A7",0),10) active(level("A7",0),11) active(level("A7",0),12) active(level("A7",0),13) active(level("A7",0),14) active(level("A7",0),0) active(level("A6",0),0) active(level("A5",0),0) active(level("A4",1),0) active(level("A3",0),0) active(level("A2",0),0) active(level("A1",0),0) numberStates(8)
SATISFIABLE

Models       : 1
Calls        : 1
Time         : 2.142s (Solving: 0.30s 1st Model: 0.17s Unsat: 0.13s)
CPU Time     : 2.136s
[ Calling Python ]
[ Solving ready ]
*** New model found! (currently 1 solutions found)
{(0, 1, 0, 0, 0, 0, 0), (0, 0, 0, 1, 0, 0, 0), (1, 0, 0, 0, 0, 0, 0), (0, 0, 0, 0, 0, 0, 1), (0, 0, 0, 0, 0, 1, 0), (0, 0, 1, 0, 0, 0, 0), (0, 0, 0, 0, 1, 0, 0), (0, 0, 0, 0, 0, 0, 0)}
*** Found: 1; skipped: 0
s SATISFIABLE
	Command being timed: "/Users/soh/app/finding_attractors/incremental-finding.sh benchmark/automata-network/star_asp/star07.lp 14"
	User time (seconds): 10.42
	System time (seconds): 0.28
	Percent of CPU this job got: 98%
	Elapsed (wall clock) time (h:mm:ss or m:ss): 0:10.89
	Average shared text size (kbytes): 0
	Average unshared data size (kbytes): 0
	Average stack size (kbytes): 0
	Average total size (kbytes): 0
	Maximum resident set size (kbytes): 254771200
	Average resident set size (kbytes): 0
	Major (requiring I/O) page faults: 0
	Minor (reclaiming a frame) page faults: 95925
	Voluntary context switches: 380
	Involuntary context switches: 1347
	Swaps: 0
	File system inputs: 0
	File system outputs: 0
	Socket messages sent: 702
	Socket messages received: 0
	Signals delivered: 1
	Page size (bytes): 4096
	Exit status: 0
FINISHED CPU 10.7 MEM 0 MAXMEM 0 STALE 1
#RESULT: SAT
#FIN: FIN
#CPU: 10.7
#MAXMEM: 0
c 
#END: [Fri Oct 28 11:37:10 2022]
